NAME : A-n61-k9-20
TYPE : VRP-D
DIMENSION : 20
CAPACITY : 100
NODE_COORD_SECTION 
 1 61 37
 2 93 57
 3 15 67
 4 23 43
 5 53 5
 6 13 75
 7 29 73
 8 47 37
 9 23 71
 10 67 45
 11 21 49
 12 93 43
 13 67 13
 14 69 25
 15 53 35
 16 25 39
 17 85 69
 18 81 27
 19 77 79
 20 45 43
DEMAND_SECTION 
1 0 
2 23 
3 17 
4 12 
5 6 
6 22 
7 3 
8 24 
9 24 
10 11 
11 7 
12 12 
13 8 
14 14 
15 20 
16 16 
17 16 
18 4 
19 9 
20 18 
DEPOT_SECTION 
 1  
 -1  
EOF 
